\ Model TSP
\ LP format - for model browsing. Use MPS format to capture full model detail.
Minimize
  510 e0_1 + 635 e0_2 + 91 e0_3 + 385 e0_4 + 155 e0_5 + 110 e0_6 + 130 e0_7
   + 490 e0_8 + 370 e0_9 + 155 e0_10 + 68 e0_11 + 610 e0_12 + 655 e0_13
   + 480 e0_14 + 265 e0_15 + 255 e0_16 + 450 e0_17 + 170 e0_18 + 240 e0_19
   + 380 e0_20 + 355 e1_2 + 415 e1_3 + 585 e1_4 + 475 e1_5 + 480 e1_6
   + 500 e1_7 + 605 e1_8 + 320 e1_9 + 380 e1_10 + 440 e1_11 + 360 e1_12
   + 235 e1_13 + 81 e1_14 + 480 e1_15 + 440 e1_16 + 270 e1_17 + 445 e1_18
   + 290 e1_19 + 140 e1_20 + 605 e2_3 + 390 e2_4 + 495 e2_5 + 570 e2_6
   + 540 e2_7 + 295 e2_8 + 700 e2_9 + 640 e2_10 + 575 e2_11 + 705 e2_12
   + 585 e2_13 + 435 e2_14 + 420 e2_15 + 755 e2_16 + 625 e2_17 + 750 e2_18
   + 590 e2_19 + 495 e2_20 + 350 e3_4 + 120 e3_5 + 78 e3_6 + 97 e3_7
   + 460 e3_8 + 280 e3_9 + 63 e3_10 + 27 e3_11 + 520 e3_12 + 555 e3_13
   + 380 e3_14 + 235 e3_15 + 235 e3_16 + 345 e3_17 + 160 e3_18 + 140 e3_19
   + 280 e3_20 + 240 e4_5 + 320 e4_6 + 285 e4_7 + 120 e4_8 + 590 e4_9
   + 430 e4_10 + 320 e4_11 + 835 e4_12 + 750 e4_13 + 575 e4_14 + 125 e4_15
   + 650 e4_16 + 660 e4_17 + 495 e4_18 + 480 e4_19 + 480 e4_20 + 96 e5_6
   + 36 e5_7 + 350 e5_8 + 365 e5_9 + 200 e5_10 + 91 e5_11 + 605 e5_12
   + 615 e5_13 + 440 e5_14 + 125 e5_15 + 370 e5_16 + 430 e5_17 + 265 e5_18
   + 255 e5_19 + 340 e5_20 + 29 e6_7 + 425 e6_8 + 350 e6_9 + 160 e6_10
   + 48 e6_11 + 590 e6_12 + 625 e6_13 + 455 e6_14 + 200 e6_15 + 320 e6_16
   + 420 e6_17 + 220 e6_18 + 205 e6_19 + 350 e6_20 + 390 e7_8 + 370 e7_9
   + 175 e7_10 + 67 e7_11 + 610 e7_12 + 645 e7_13 + 465 e7_14 + 165 e7_15
   + 350 e7_16 + 440 e7_17 + 240 e7_18 + 220 e7_19 + 370 e7_20 + 625 e8_9
   + 535 e8_10 + 430 e8_11 + 865 e8_12 + 775 e8_13 + 600 e8_14 + 230 e8_15
   + 680 e8_16 + 690 e8_17 + 600 e8_18 + 515 e8_19 + 505 e8_20 + 240 e9_10
   + 300 e9_11 + 250 e9_12 + 285 e9_13 + 245 e9_14 + 475 e9_15 + 150 e9_16
   + 77 e9_17 + 235 e9_18 + 150 e9_19 + 185 e9_20 + 90 e10_11 + 480 e10_12
   + 515 e10_13 + 345 e10_14 + 310 e10_15 + 175 e10_16 + 310 e10_17
   + 125 e10_18 + 100 e10_19 + 240 e10_20 + 545 e11_12 + 585 e11_13
   + 415 e11_14 + 205 e11_15 + 265 e11_16 + 380 e11_17 + 170 e11_18
   + 170 e11_19 + 310 e11_20 + 190 e12_13 + 295 e12_14 + 715 e12_15
   + 400 e12_16 + 180 e12_17 + 485 e12_18 + 390 e12_19 + 345 e12_20
   + 170 e13_14 + 650 e13_15 + 435 e13_16 + 215 e13_17 + 525 e13_18
   + 425 e13_19 + 280 e13_20 + 475 e14_15 + 385 e14_16 + 190 e14_17
   + 405 e14_18 + 255 e14_19 + 105 e14_20 + 485 e15_16 + 545 e15_17
   + 375 e15_18 + 395 e15_19 + 380 e15_20 + 225 e16_17 + 87 e16_18
   + 205 e16_19 + 280 e16_20 + 315 e17_18 + 220 e17_19 + 165 e17_20
   + 155 e18_19 + 305 e18_20 + 150 e19_20
Subject To
 R0: e0_1 + e0_2 + e0_3 + e0_4 + e0_5 + e0_6 + e0_7 + e0_8 + e0_9 + e0_10
   + e0_11 + e0_12 + e0_13 + e0_14 + e0_15 + e0_16 + e0_17 + e0_18 + e0_19
   + e0_20 = 2
 R1: e0_1 + e1_2 + e1_3 + e1_4 + e1_5 + e1_6 + e1_7 + e1_8 + e1_9 + e1_10
   + e1_11 + e1_12 + e1_13 + e1_14 + e1_15 + e1_16 + e1_17 + e1_18 + e1_19
   + e1_20 = 2
 R2: e0_2 + e1_2 + e2_3 + e2_4 + e2_5 + e2_6 + e2_7 + e2_8 + e2_9 + e2_10
   + e2_11 + e2_12 + e2_13 + e2_14 + e2_15 + e2_16 + e2_17 + e2_18 + e2_19
   + e2_20 = 2
 R3: e0_3 + e1_3 + e2_3 + e3_4 + e3_5 + e3_6 + e3_7 + e3_8 + e3_9 + e3_10
   + e3_11 + e3_12 + e3_13 + e3_14 + e3_15 + e3_16 + e3_17 + e3_18 + e3_19
   + e3_20 = 2
 R4: e0_4 + e1_4 + e2_4 + e3_4 + e4_5 + e4_6 + e4_7 + e4_8 + e4_9 + e4_10
   + e4_11 + e4_12 + e4_13 + e4_14 + e4_15 + e4_16 + e4_17 + e4_18 + e4_19
   + e4_20 = 2
 R5: e0_5 + e1_5 + e2_5 + e3_5 + e4_5 + e5_6 + e5_7 + e5_8 + e5_9 + e5_10
   + e5_11 + e5_12 + e5_13 + e5_14 + e5_15 + e5_16 + e5_17 + e5_18 + e5_19
   + e5_20 = 2
 R6: e0_6 + e1_6 + e2_6 + e3_6 + e4_6 + e5_6 + e6_7 + e6_8 + e6_9 + e6_10
   + e6_11 + e6_12 + e6_13 + e6_14 + e6_15 + e6_16 + e6_17 + e6_18 + e6_19
   + e6_20 = 2
 R7: e0_7 + e1_7 + e2_7 + e3_7 + e4_7 + e5_7 + e6_7 + e7_8 + e7_9 + e7_10
   + e7_11 + e7_12 + e7_13 + e7_14 + e7_15 + e7_16 + e7_17 + e7_18 + e7_19
   + e7_20 = 2
 R8: e0_8 + e1_8 + e2_8 + e3_8 + e4_8 + e5_8 + e6_8 + e7_8 + e8_9 + e8_10
   + e8_11 + e8_12 + e8_13 + e8_14 + e8_15 + e8_16 + e8_17 + e8_18 + e8_19
   + e8_20 = 2
 R9: e0_9 + e1_9 + e2_9 + e3_9 + e4_9 + e5_9 + e6_9 + e7_9 + e8_9 + e9_10
   + e9_11 + e9_12 + e9_13 + e9_14 + e9_15 + e9_16 + e9_17 + e9_18 + e9_19
   + e9_20 = 2
 R10: e0_10 + e1_10 + e2_10 + e3_10 + e4_10 + e5_10 + e6_10 + e7_10 + e8_10
   + e9_10 + e10_11 + e10_12 + e10_13 + e10_14 + e10_15 + e10_16 + e10_17
   + e10_18 + e10_19 + e10_20 = 2
 R11: e0_11 + e1_11 + e2_11 + e3_11 + e4_11 + e5_11 + e6_11 + e7_11 + e8_11
   + e9_11 + e10_11 + e11_12 + e11_13 + e11_14 + e11_15 + e11_16 + e11_17
   + e11_18 + e11_19 + e11_20 = 2
 R12: e0_12 + e1_12 + e2_12 + e3_12 + e4_12 + e5_12 + e6_12 + e7_12 + e8_12
   + e9_12 + e10_12 + e11_12 + e12_13 + e12_14 + e12_15 + e12_16 + e12_17
   + e12_18 + e12_19 + e12_20 = 2
 R13: e0_13 + e1_13 + e2_13 + e3_13 + e4_13 + e5_13 + e6_13 + e7_13 + e8_13
   + e9_13 + e10_13 + e11_13 + e12_13 + e13_14 + e13_15 + e13_16 + e13_17
   + e13_18 + e13_19 + e13_20 = 2
 R14: e0_14 + e1_14 + e2_14 + e3_14 + e4_14 + e5_14 + e6_14 + e7_14 + e8_14
   + e9_14 + e10_14 + e11_14 + e12_14 + e13_14 + e14_15 + e14_16 + e14_17
   + e14_18 + e14_19 + e14_20 = 2
 R15: e0_15 + e1_15 + e2_15 + e3_15 + e4_15 + e5_15 + e6_15 + e7_15 + e8_15
   + e9_15 + e10_15 + e11_15 + e12_15 + e13_15 + e14_15 + e15_16 + e15_17
   + e15_18 + e15_19 + e15_20 = 2
 R16: e0_16 + e1_16 + e2_16 + e3_16 + e4_16 + e5_16 + e6_16 + e7_16 + e8_16
   + e9_16 + e10_16 + e11_16 + e12_16 + e13_16 + e14_16 + e15_16 + e16_17
   + e16_18 + e16_19 + e16_20 = 2
 R17: e0_17 + e1_17 + e2_17 + e3_17 + e4_17 + e5_17 + e6_17 + e7_17 + e8_17
   + e9_17 + e10_17 + e11_17 + e12_17 + e13_17 + e14_17 + e15_17 + e16_17
   + e17_18 + e17_19 + e17_20 = 2
 R18: e0_18 + e1_18 + e2_18 + e3_18 + e4_18 + e5_18 + e6_18 + e7_18 + e8_18
   + e9_18 + e10_18 + e11_18 + e12_18 + e13_18 + e14_18 + e15_18 + e16_18
   + e17_18 + e18_19 + e18_20 = 2
 R19: e0_19 + e1_19 + e2_19 + e3_19 + e4_19 + e5_19 + e6_19 + e7_19 + e8_19
   + e9_19 + e10_19 + e11_19 + e12_19 + e13_19 + e14_19 + e15_19 + e16_19
   + e17_19 + e18_19 + e19_20 = 2
 R20: e0_20 + e1_20 + e2_20 + e3_20 + e4_20 + e5_20 + e6_20 + e7_20 + e8_20
   + e9_20 + e10_20 + e11_20 + e12_20 + e13_20 + e14_20 + e15_20 + e16_20
   + e17_20 + e18_20 + e19_20 = 2
Bounds
Binaries
 e0_1 e0_2 e0_3 e0_4 e0_5 e0_6 e0_7 e0_8 e0_9 e0_10 e0_11 e0_12 e0_13 e0_14
 e0_15 e0_16 e0_17 e0_18 e0_19 e0_20 e1_2 e1_3 e1_4 e1_5 e1_6 e1_7 e1_8
 e1_9 e1_10 e1_11 e1_12 e1_13 e1_14 e1_15 e1_16 e1_17 e1_18 e1_19 e1_20
 e2_3 e2_4 e2_5 e2_6 e2_7 e2_8 e2_9 e2_10 e2_11 e2_12 e2_13 e2_14 e2_15
 e2_16 e2_17 e2_18 e2_19 e2_20 e3_4 e3_5 e3_6 e3_7 e3_8 e3_9 e3_10 e3_11
 e3_12 e3_13 e3_14 e3_15 e3_16 e3_17 e3_18 e3_19 e3_20 e4_5 e4_6 e4_7 e4_8
 e4_9 e4_10 e4_11 e4_12 e4_13 e4_14 e4_15 e4_16 e4_17 e4_18 e4_19 e4_20
 e5_6 e5_7 e5_8 e5_9 e5_10 e5_11 e5_12 e5_13 e5_14 e5_15 e5_16 e5_17 e5_18
 e5_19 e5_20 e6_7 e6_8 e6_9 e6_10 e6_11 e6_12 e6_13 e6_14 e6_15 e6_16 e6_17
 e6_18 e6_19 e6_20 e7_8 e7_9 e7_10 e7_11 e7_12 e7_13 e7_14 e7_15 e7_16
 e7_17 e7_18 e7_19 e7_20 e8_9 e8_10 e8_11 e8_12 e8_13 e8_14 e8_15 e8_16
 e8_17 e8_18 e8_19 e8_20 e9_10 e9_11 e9_12 e9_13 e9_14 e9_15 e9_16 e9_17
 e9_18 e9_19 e9_20 e10_11 e10_12 e10_13 e10_14 e10_15 e10_16 e10_17 e10_18
 e10_19 e10_20 e11_12 e11_13 e11_14 e11_15 e11_16 e11_17 e11_18 e11_19
 e11_20 e12_13 e12_14 e12_15 e12_16 e12_17 e12_18 e12_19 e12_20 e13_14
 e13_15 e13_16 e13_17 e13_18 e13_19 e13_20 e14_15 e14_16 e14_17 e14_18
 e14_19 e14_20 e15_16 e15_17 e15_18 e15_19 e15_20 e16_17 e16_18 e16_19
 e16_20 e17_18 e17_19 e17_20 e18_19 e18_20 e19_20
End
